Running MiniSat on FULL_RUN_MINISAT\7fca438c38e5b7a70e38778ec146cfe0-ctl_4291_567_2_unsat-sc2013.cnf... 
============================[ Problem Statistics ]=============================
|                                                                             |
|  Number of variables:         17850                                         |
|  Number of clauses:          149132                                         |
|  Parse time:                   0.28 s                                       |
|                                                                             |
============================[ Search Statistics ]==============================
| Conflicts |          ORIGINAL         |          LEARNT          | Progress |
|           |    Vars  Clauses Literals |    Limit  Clauses Lit/Cl |          |
===============================================================================
|       100 |   17850   149132   497878 |    54681      100     22 |  0.000 % |
|       250 |   17850   149132   497878 |    60149      250     19 |  0.000 % |
|       475 |   17850   149132   497878 |    66164      475     19 |  0.000 % |
|       812 |   17850   149132   497878 |    72781      812     17 |  0.000 % |
|      1318 |   17850   149132   497878 |    80059     1318     17 |  0.000 % |
|      2077 |   17850   149132   497878 |    88065     2077     16 |  0.000 % |
|      3216 |   17850   149132   497878 |    96872     3216     15 |  0.000 % |
|      4924 |   17850   149132   497878 |   106559     4924     14 |  0.000 % |
|      7486 |   17850   149132   497878 |   117215     7486     15 |  0.000 % |
|     11330 |   17850   149132   497878 |   128936    11330     15 |  0.000 % |
|     17096 |   17850   149132   497878 |   141830    17096     15 |  0.000 % |
|     25745 |   17850   149132   497878 |   156013    25745     15 |  0.000 % |
|     38719 |   17850   149132   497878 |   171614    38719     15 |  0.000 % |
|     58180 |   17850   149132   497878 |   188776    58180     15 |  0.000 % |
|     87372 |   17850   149132   497878 |   207653    87372     15 |  0.000 % |
ERROR: MiniSat process not found for FULL_RUN_MINISAT\83b330c934d6dd35d56e1b1ca3638b3c-j3037_1_mdd_b.cnf 
Finished MiniSat on FULL_RUN_MINISAT\83b330c934d6dd35d56e1b1ca3638b3c-j3037_1_mdd_b.cnf